benchmarks_vrp/CMT2/no_cluster/CMT2_7.vrp
NAME: CMT2_7
TYPE: CVRP
COMMENT: 835.26 - Cluster Nr.7
DIMENSION: 8
CAPACITY: 140
EDGE_WEIGHT_TYPE: EUC_2D
NODE_COORD_TYPE: TWOD_COORDS
NODE_COORD_SECTION: 
1 62 35
8 50 30
3 51 42
4 40 40
5 55 34
6 50 40
7 54 38
2 55 45
DEPOT_SECTION: 
4
-1
DEMAND_SECTION: 
5 17
8 21
3 27
6 19
4 0
7 19
2 16
1 12
EOF
