benchmarks_vrp/CMT2/no_cluster/CMT2_7.tour
NAME: CMT2_7 solution
TYPE: TOUR
TOUR_SECTION:
4 6 3 2 7 1 5 8 -1
-1
EOF